Test: battleship-09-17-sat.cnf
Options: -no-inverting-opt -activity-nl-freq=1
WARNING: for repeatability, setting FPU to use double precision
============================[ Problem Statistics ]=============================
|                                                                             |
|  Number of symmetries:           15                                         |
|  Number of invertingSyms:         0                                         |
|  Number of variables:           153                                         |
|  Number of clauses:             693                                         |
|  Parse time:                   0.00 s                                       |
|                                                                             |
============================[ Search Statistics ]==============================
| Conflicts |          ORIGINAL         |          LEARNT          | Progress |
|           |    Vars  Clauses Literals |    Limit  Clauses Lit/Cl |          |
===============================================================================
|       100 |     153      693     2601 |      254      103     63 |  0.004 % |
|       250 |     153      693     2601 |      279      278     59 |  0.004 % |
|       475 |     153      693     2601 |      307      230     47 |  0.004 % |
|       812 |     153      693     2601 |      338      264     48 |  0.004 % |
|      1318 |     153      693     2601 |      372      315     50 |  0.004 % |
|      2077 |     153      693     2601 |      409      355     45 |  0.004 % |
===============================================================================
restarts              : 15
conflicts             : 2835           (59059 /sec)
symconflicts          : 151            (3146 /sec)
decisions             : 5649           (0.00 % random) (117680 /sec)
propagations          : 45083          (939170 /sec)
sympropagations       : 786            (16374 /sec)
conflict literals     : 173886         (2.40 % deleted)
literals     : 173886         (2.40 % deleted)

HEURISTIC USAGES
random                : 0           
activity w/ lookahead : 0           
activity no lookahead : 5648        
original sp           : 0           
sym count             : 0           

Memory used           : 5.00 MB
CPU time              : 0.048003 s

SATISFIABLE
